unsat
(:SPACER-inductive-gen                14
 :SPACER-inductive-gen-weaken-fail    21
 :SPACER-inductive-level              2
 :SPACER-max-depth                    5
 :SPACER-max-query-lvl                5
 :SPACER-num-active-lemmas            9
 :SPACER-num-ctp-blocked              3
 :SPACER-num-invariants               8
 :SPACER-num-is_invariant             27
 :SPACER-num-lemmas                   20
 :SPACER-num-pobs                     8
 :SPACER-num-propagations             12
 :SPACER-num-queries                  14
 :added-eqs                           922
 :arith-assert-diseq                  172
 :arith-assert-lower                  1342
 :arith-assert-upper                  1538
 :arith-bound-prop                    196
 :arith-conflicts                     48
 :arith-eq-adapter                    254
 :arith-fixed-eqs                     234
 :arith-num-rows                      36
 :arith-offset-eqs                    16
 :arith-pivots                        418
 :arith-row-summations                2050
 :arith-tableau-max-columns           76
 :arith-tableau-max-rows              36
 :conflicts                           246
 :decisions                           1288
 :del-clause                          332
 :final-checks                        82
 :iuc_solver.num_proxies              37
 :max-memory                          31.22
 :memory                              30.67
 :minimized-lits                      20
 :mk-bool-var                         1146
 :mk-clause                           920
 :num-allocs                          6635532
 :num-checks                          216
 :pool_solver.checks                  108
 :pool_solver.checks.sat              38
 :pool_solver.checks.undef            3
 :propagations                        7644
 :rlimit-count                        54381
 :time                                0.07
 :time.iuc_solver.get_iuc             0.01
 :time.iuc_solver.get_iuc.hyp_reduce1 0.00
 :time.iuc_solver.get_iuc.hyp_reduce2 0.00
 :time.iuc_solver.get_iuc.learn_core  0.00
 :time.pool_solver.proof              0.00
 :time.pool_solver.smt.total          0.02
 :time.pool_solver.smt.total.sat      0.01
 :time.spacer.init_rules              0.00
 :time.spacer.mbp                     0.00
 :time.spacer.solve                   0.05
 :time.spacer.solve.propagate         0.01
 :time.spacer.solve.reach             0.04
 :time.spacer.solve.reach.children    0.00
 :time.spacer.solve.reach.cluster     0.00
 :time.spacer.solve.reach.gen.ind     0.01)
(:max-memory   31.22
 :memory       30.67
 :num-allocs   6635532
 :rlimit-count 54381
 :time         0.07
 :total-time   0.08)
